40 12 
55 44 
34 50 
0 94 
11 29 
25 74 
13 48 
88 23 
25 78 
61 0 
66 90 
34 20 
27 46 
41 51 
43 60 
38 35 
24 93 
31 58 
43 31 
5 7 
12 82 
81 77 
31 22 
1 56 
52 14 
8 70 
4 42 
90 84 
88 84 
35 83 
44 73 
18 21 
18 49 
79 14 
32 36 
21 96 
19 54 
74 50 
76 27 
58 80 
41 66 
50 97 
8 41 
81 97 
25 17 
80 21 
42 99 
42 61 
0 74 
75 85 
